\ENCODING=ISO-8859-1
\Problem name: ilog.cplex

Maximize
 obj: 442 x(0)#0 + 1020 x(1)#1 + 901 x(2)#2 + 607 x(3)#3 + 897 x(4)#4
      + 604 x(5)#5 + 347 x(6)#6 + 624 x(7)#7 + 869 x(8)#8 + 788 x(9)#9
      + 710 x(10)#10 + 1050 x(11)#11 + 286 x(12)#12 + 703 x(13)#13
      + 585 x(14)#14 + 669 x(15)#15 + 614 x(16)#16 + 816 x(17)#17
      + 728 x(18)#18 + 688 x(19)#19 + 953 x(20)#20 + 688 x(21)#21
      + 882 x(22)#22 + 770 x(23)#23 + 407 x(24)#24 + 436 x(25)#25
      + 1030 x(26)#26 + 930 x(27)#27 + 778 x(28)#28 + 667 x(29)#29
      + 790 x(30)#30 + 671 x(31)#31 + 628 x(32)#32 + 464 x(33)#33
      + 680 x(34)#34 + 885 x(35)#35 + 882 x(36)#36 + 354 x(37)#37
      + 831 x(38)#38 + 1046 x(39)#39 + 987 x(40)#40 + 920 x(41)#41
      + 427 x(42)#42 + 451 x(43)#43 + 760 x(44)#44 + 528 x(45)#45
      + 992 x(46)#46 + 994 x(47)#47 + 1041 x(48)#48 + 562 x(49)#49
      + 539 x(50)#50 + 481 x(51)#51 + 620 x(52)#52 + 717 x(53)#53
      + 588 x(54)#54 + 713 x(55)#55 + 497 x(56)#56 + 645 x(57)#57
      + 766 x(58)#58 + 696 x(59)#59 + 905 x(60)#60 + 920 x(61)#61
      + 574 x(62)#62 + 864 x(63)#63 + 914 x(64)#64 + 417 x(65)#65
      + 756 x(66)#66 + 915 x(67)#67 + 648 x(68)#68 + 709 x(69)#69
      + 898 x(70)#70 + 1061 x(71)#71 + 632 x(72)#72 + 892 x(73)#73
      + 1075 x(74)#74 + 913 x(75)#75 + 824 x(76)#76 + 462 x(77)#77
      + 876 x(78)#78 + 817 x(79)#79 + 646 x(80)#80 + 648 x(81)#81
      + 668 x(82)#82 + 879 x(83)#83 + 999 x(84)#84 + 638 x(85)#85
      + 768 x(86)#86 + 614 x(87)#87 + 467 x(88)#88 + 815 x(89)#89
      + 900 x(90)#90 + 848 x(91)#91 + 596 x(92)#92 + 716 x(93)#93
      + 978 x(94)#94 + 890 x(95)#95 + 504 x(96)#96 + 456 x(97)#97
      + 858 x(98)#98 + 822 x(99)#99
Subject To
 c1: 290 x(0)#0 + 750 x(1)#1 + 494 x(2)#2 + 170 x(3)#3 + 993 x(4)#4
     + 518 x(5)#5 + 578 x(6)#6 + 614 x(7)#7 + 206 x(8)#8 + 429 x(9)#9
     + 689 x(10)#10 + 19 x(11)#11 + 222 x(12)#12 + 585 x(13)#13 + 190 x(14)#14
     + 236 x(15)#15 + 436 x(16)#16 + 420 x(17)#17 + 747 x(18)#18 + 21 x(19)#19
     + 690 x(20)#20 + 124 x(21)#21 + 765 x(22)#22 + 236 x(23)#23 + 692 x(24)#24
     + 141 x(25)#25 + 329 x(26)#26 + 395 x(27)#27 + 740 x(28)#28 + 265 x(29)#29
     + 242 x(30)#30 + 6 x(31)#31 + 781 x(32)#32 + 322 x(33)#33 + 749 x(34)#34
     + 108 x(35)#35 + 496 x(36)#36 + 557 x(37)#37 + 875 x(38)#38 + 976 x(39)#39
     + 528 x(40)#40 + 719 x(41)#41 + 52 x(42)#42 + 76 x(43)#43 + 670 x(44)#44
     + 764 x(45)#45 + 115 x(46)#46 + 962 x(47)#47 + 771 x(48)#48 + 660 x(49)#49
     + 605 x(50)#50 + 27 x(51)#51 + 185 x(52)#52 + 156 x(53)#53 + 465 x(54)#54
     + 867 x(55)#55 + 400 x(56)#56 + 734 x(57)#57 + 919 x(58)#58 + 739 x(59)#59
     + 722 x(60)#60 + 968 x(61)#61 + 8 x(62)#62 + 140 x(63)#63 + 926 x(64)#64
     + 372 x(65)#65 + 577 x(66)#66 + 947 x(67)#67 + 381 x(68)#68 + 37 x(69)#69
     + 462 x(70)#70 + 210 x(71)#71 + 557 x(72)#72 + 724 x(73)#73 + 561 x(74)#74
     + 161 x(75)#75 + 104 x(76)#76 + 142 x(77)#77 + 824 x(78)#78 + 366 x(79)#79
     + 580 x(80)#80 + 742 x(81)#81 + 991 x(82)#82 + 370 x(83)#83 + 617 x(84)#84
     + 609 x(85)#85 + 531 x(86)#86 + 622 x(87)#87 + 13 x(88)#88 + 94 x(89)#89
     + 866 x(90)#90 + 442 x(91)#91 + 656 x(92)#92 + 297 x(93)#93 + 74 x(94)#94
     + 12 x(95)#95 + 22 x(96)#96 + 60 x(97)#97 + 72 x(98)#98 + 408 x(99)#99
     <= 34333
 c2: 783 x(0)#0 + 405 x(1)#1 + 45 x(2)#2 + 260 x(3)#3 + 151 x(4)#4 + 557 x(5)#5
     + 96 x(6)#6 + 128 x(7)#7 + 822 x(8)#8 + 870 x(9)#9 + 246 x(10)#10
     + 816 x(11)#11 + 856 x(12)#12 + 306 x(13)#13 + 914 x(14)#14 + 386 x(15)#15
     + 19 x(16)#16 + 755 x(17)#17 + 388 x(18)#18 + 406 x(19)#19 + 931 x(20)#20
     + 198 x(21)#21 + 347 x(22)#22 + 664 x(23)#23 + 188 x(24)#24 + 614 x(25)#25
     + 474 x(26)#26 + 870 x(27)#27 + 684 x(28)#28 + 274 x(29)#29 + 387 x(30)#30
     + 282 x(31)#31 + 702 x(32)#32 + 222 x(33)#33 + 999 x(34)#34 + 991 x(35)#35
     + 718 x(36)#36 + 58 x(37)#37 + 129 x(38)#38 + 211 x(39)#39 + 520 x(40)#40
     + 517 x(41)#41 + 981 x(42)#42 + 905 x(43)#43 + 303 x(44)#44 + 487 x(45)#45
     + 740 x(46)#46 + 555 x(47)#47 + 662 x(48)#48 + 209 x(49)#49 + 436 x(50)#50
     + 810 x(51)#51 + 32 x(52)#52 + 53 x(53)#53 + 897 x(54)#54 + 173 x(55)#55
     + 601 x(56)#56 + 693 x(57)#57 + 447 x(58)#58 + 115 x(59)#59 + 544 x(60)#60
     + 397 x(61)#61 + 570 x(62)#62 + 665 x(63)#63 + 75 x(64)#64 + 159 x(65)#65
     + 515 x(66)#66 + 186 x(67)#67 + 913 x(68)#68 + 866 x(69)#69 + 260 x(70)#70
     + 945 x(71)#71 + 365 x(72)#72 + 530 x(73)#73 + 909 x(74)#74 + 375 x(75)#75
     + 480 x(76)#76 + 222 x(77)#77 + 662 x(78)#78 + 126 x(79)#79 + 915 x(80)#80
     + 236 x(81)#81 + 283 x(82)#82 + 114 x(83)#83 + 55 x(84)#84 + 396 x(85)#85
     + 646 x(86)#86 + 506 x(87)#87 + 876 x(88)#88 + 887 x(89)#89 + 440 x(90)#90
     + 601 x(91)#91 + 787 x(92)#92 + 846 x(93)#93 + 726 x(94)#94 + 261 x(95)#95
     + 5 x(96)#96 + 74 x(97)#97 + 923 x(98)#98 + 621 x(99)#99 <= 36938
 c3: 480 x(0)#0 + 350 x(1)#1 + 680 x(2)#2 + 402 x(3)#3 + 389 x(4)#4
     + 238 x(5)#5 + 582 x(6)#6 + 964 x(7)#7 + 195 x(8)#8 + 871 x(9)#9
     + 232 x(10)#10 + 953 x(11)#11 + 81 x(12)#12 + 443 x(13)#13 + 817 x(14)#14
     + 518 x(15)#15 + 213 x(16)#16 + 995 x(17)#17 + 849 x(18)#18 + 574 x(19)#19
     + 631 x(20)#20 + 499 x(21)#21 + 415 x(22)#22 + 178 x(23)#23 + 381 x(24)#24
     + 68 x(25)#25 + 621 x(26)#26 + 542 x(27)#27 + 765 x(28)#28 + 164 x(29)#29
     + 829 x(30)#30 + 992 x(31)#31 + 412 x(32)#32 + 678 x(33)#33 + 407 x(34)#34
     + 799 x(35)#35 + 561 x(36)#36 + 81 x(37)#37 + 64 x(38)#38 + 559 x(39)#39
     + 577 x(40)#40 + 665 x(41)#41 + 130 x(42)#42 + 198 x(43)#43 + 400 x(44)#44
     + 160 x(45)#45 + 366 x(46)#46 + 750 x(47)#47 + 276 x(48)#48 + 114 x(49)#49
     + 818 x(50)#50 + 56 x(51)#51 + 650 x(52)#52 + 411 x(53)#53 + 306 x(54)#54
     + 309 x(55)#55 + 77 x(56)#56 + 936 x(57)#57 + 311 x(58)#58 + 821 x(59)#59
     + 258 x(60)#60 + 512 x(61)#61 + 51 x(62)#62 + 451 x(63)#63 + 252 x(64)#64
     + 209 x(65)#65 + 352 x(66)#66 + 582 x(67)#67 + 481 x(68)#68 + 683 x(69)#69
     + 163 x(70)#70 + 504 x(71)#71 + 769 x(72)#72 + 493 x(73)#73 + 324 x(74)#74
     + 556 x(75)#75 + 977 x(76)#76 + 753 x(77)#77 + 466 x(78)#78 + 386 x(79)#79
     + 100 x(80)#80 + 280 x(81)#81 + 760 x(82)#82 + 779 x(83)#83 + 652 x(84)#84
     + 916 x(85)#85 + 722 x(86)#86 + 451 x(87)#87 + 179 x(88)#88 + 426 x(89)#89
     + 982 x(90)#90 + 16 x(91)#91 + 93 x(92)#92 + 844 x(93)#93 + 915 x(94)#94
     + 839 x(95)#95 + 865 x(96)#96 + 872 x(97)#97 + 483 x(98)#98 + 345 x(99)#99
     <= 37158
 c4: 451 x(0)#0 + 243 x(1)#1 + 127 x(2)#2 + 136 x(3)#3 + 235 x(4)#4 + 43 x(5)#5
     + 214 x(6)#6 + 100 x(7)#7 + 620 x(8)#8 + 6 x(9)#9 + 933 x(10)#10
     + 763 x(11)#11 + 20 x(12)#12 + 518 x(13)#13 + 709 x(14)#14 + 796 x(15)#15
     + 989 x(16)#16 + 657 x(17)#17 + 320 x(18)#18 + 282 x(19)#19 + 8 x(20)#20
     + 474 x(21)#21 + 177 x(22)#22 + 817 x(23)#23 + 277 x(24)#24 + x(25)#25
     + 654 x(26)#26 + 682 x(27)#27 + 362 x(28)#28 + 555 x(29)#29 + 895 x(30)#30
     + 447 x(31)#31 + 410 x(32)#32 + 610 x(33)#33 + 180 x(34)#34 + 405 x(35)#35
     + 152 x(36)#36 + 34 x(37)#37 + 488 x(38)#38 + 204 x(39)#39 + 535 x(40)#40
     + 121 x(41)#41 + 255 x(42)#42 + 136 x(43)#43 + 924 x(44)#44 + 884 x(45)#45
     + 824 x(46)#46 + 773 x(47)#47 + 486 x(48)#48 + 224 x(49)#49 + 194 x(50)#50
     + 100 x(51)#51 + 971 x(52)#52 + 511 x(53)#53 + 264 x(54)#54 + 751 x(55)#55
     + 218 x(56)#56 + 7 x(57)#57 + 548 x(58)#58 + 502 x(59)#59 + 640 x(60)#60
     + 714 x(61)#61 + 46 x(62)#62 + 624 x(63)#63 + 763 x(64)#64 + 815 x(65)#65
     + 57 x(66)#66 + 25 x(67)#67 + 856 x(68)#68 + 147 x(69)#69 + 961 x(70)#70
     + 550 x(71)#71 + 869 x(72)#72 + 640 x(73)#73 + 199 x(74)#74 + 217 x(75)#75
     + 253 x(76)#76 + 161 x(77)#77 + 320 x(78)#78 + 980 x(79)#79 + 295 x(80)#80
     + 18 x(81)#81 + 417 x(82)#82 + 727 x(83)#83 + 957 x(84)#84 + 2 x(85)#85
     + 275 x(86)#86 + 419 x(87)#87 + 493 x(88)#88 + 694 x(89)#89 + 318 x(90)#90
     + 434 x(91)#91 + 682 x(92)#92 + 996 x(93)#93 + 982 x(94)#94 + 612 x(95)#95
     + 248 x(96)#96 + 700 x(97)#97 + 936 x(98)#98 + 627 x(99)#99 <= 34418
 c5: 90 x(0)#0 + 862 x(1)#1 + 811 x(2)#2 + 657 x(3)#3 + 395 x(4)#4 + 755 x(5)#5
     + 207 x(6)#6 + 406 x(7)#7 + 998 x(8)#8 + 166 x(9)#9 + 78 x(10)#10
     + 459 x(11)#11 + 38 x(12)#12 + 855 x(13)#13 + 37 x(14)#14 + 373 x(15)#15
     + 405 x(16)#16 + 907 x(17)#17 + 761 x(18)#18 + 259 x(19)#19 + 614 x(20)#20
     + 845 x(21)#21 + 658 x(22)#22 + 375 x(23)#23 + 489 x(24)#24 + 82 x(25)#25
     + 576 x(26)#26 + 524 x(27)#27 + 73 x(28)#28 + 287 x(29)#29 + 735 x(30)#30
     + 531 x(31)#31 + 758 x(32)#32 + 387 x(33)#33 + 37 x(34)#34 + 581 x(35)#35
     + 827 x(36)#36 + 772 x(37)#37 + 229 x(38)#38 + 791 x(39)#39 + 400 x(40)#40
     + 443 x(41)#41 + 267 x(42)#42 + 89 x(43)#43 + 278 x(44)#44 + 198 x(45)#45
     + 846 x(46)#46 + 470 x(47)#47 + 844 x(48)#48 + 449 x(49)#49 + 172 x(50)#50
     + 249 x(51)#51 + 491 x(52)#52 + 588 x(53)#53 + 9 x(54)#54 + 139 x(55)#55
     + 308 x(56)#56 + 451 x(57)#57 + 597 x(58)#58 + 542 x(59)#59 + 845 x(60)#60
     + 944 x(61)#61 + 352 x(62)#62 + 281 x(63)#63 + 709 x(64)#64 + 193 x(65)#65
     + 998 x(66)#66 + 986 x(67)#67 + 277 x(68)#68 + 409 x(69)#69 + 427 x(70)#70
     + 917 x(71)#71 + 18 x(72)#72 + 103 x(73)#73 + 949 x(74)#74 + 823 x(75)#75
     + 900 x(76)#76 + 856 x(77)#77 + 844 x(78)#78 + 136 x(79)#79 + 281 x(80)#80
     + 117 x(81)#81 + 546 x(82)#82 + 436 x(83)#83 + 439 x(84)#84 + 701 x(85)#85
     + 787 x(86)#86 + 232 x(87)#87 + 243 x(88)#88 + 8 x(89)#89 + 403 x(90)#90
     + 852 x(91)#91 + 340 x(92)#92 + 225 x(93)#93 + 657 x(94)#94 + 574 x(95)#95
     + 878 x(96)#96 + 17 x(97)#97 + 952 x(98)#98 + 608 x(99)#99 <= 36587
Bounds
 0 <= x(0)#0 <= 1
 0 <= x(1)#1 <= 1
 0 <= x(2)#2 <= 1
 0 <= x(3)#3 <= 1
 0 <= x(4)#4 <= 1
 0 <= x(5)#5 <= 1
 0 <= x(6)#6 <= 1
 0 <= x(7)#7 <= 1
 0 <= x(8)#8 <= 1
 0 <= x(9)#9 <= 1
 0 <= x(10)#10 <= 1
 0 <= x(11)#11 <= 1
 0 <= x(12)#12 <= 1
 0 <= x(13)#13 <= 1
 0 <= x(14)#14 <= 1
 0 <= x(15)#15 <= 1
 0 <= x(16)#16 <= 1
 0 <= x(17)#17 <= 1
 0 <= x(18)#18 <= 1
 0 <= x(19)#19 <= 1
 0 <= x(20)#20 <= 1
 0 <= x(21)#21 <= 1
 0 <= x(22)#22 <= 1
 0 <= x(23)#23 <= 1
 0 <= x(24)#24 <= 1
 0 <= x(25)#25 <= 1
 0 <= x(26)#26 <= 1
 0 <= x(27)#27 <= 1
 0 <= x(28)#28 <= 1
 0 <= x(29)#29 <= 1
 0 <= x(30)#30 <= 1
 0 <= x(31)#31 <= 1
 0 <= x(32)#32 <= 1
 0 <= x(33)#33 <= 1
 0 <= x(34)#34 <= 1
 0 <= x(35)#35 <= 1
 0 <= x(36)#36 <= 1
 0 <= x(37)#37 <= 1
 0 <= x(38)#38 <= 1
 0 <= x(39)#39 <= 1
 0 <= x(40)#40 <= 1
 0 <= x(41)#41 <= 1
 0 <= x(42)#42 <= 1
 0 <= x(43)#43 <= 1
 0 <= x(44)#44 <= 1
 0 <= x(45)#45 <= 1
 0 <= x(46)#46 <= 1
 0 <= x(47)#47 <= 1
 0 <= x(48)#48 <= 1
 0 <= x(49)#49 <= 1
 0 <= x(50)#50 <= 1
 0 <= x(51)#51 <= 1
 0 <= x(52)#52 <= 1
 0 <= x(53)#53 <= 1
 0 <= x(54)#54 <= 1
 0 <= x(55)#55 <= 1
 0 <= x(56)#56 <= 1
 0 <= x(57)#57 <= 1
 0 <= x(58)#58 <= 1
 0 <= x(59)#59 <= 1
 0 <= x(60)#60 <= 1
 0 <= x(61)#61 <= 1
 0 <= x(62)#62 <= 1
 0 <= x(63)#63 <= 1
 0 <= x(64)#64 <= 1
 0 <= x(65)#65 <= 1
 0 <= x(66)#66 <= 1
 0 <= x(67)#67 <= 1
 0 <= x(68)#68 <= 1
 0 <= x(69)#69 <= 1
 0 <= x(70)#70 <= 1
 0 <= x(71)#71 <= 1
 0 <= x(72)#72 <= 1
 0 <= x(73)#73 <= 1
 0 <= x(74)#74 <= 1
 0 <= x(75)#75 <= 1
 0 <= x(76)#76 <= 1
 0 <= x(77)#77 <= 1
 0 <= x(78)#78 <= 1
 0 <= x(79)#79 <= 1
 0 <= x(80)#80 <= 1
 0 <= x(81)#81 <= 1
 0 <= x(82)#82 <= 1
 0 <= x(83)#83 <= 1
 0 <= x(84)#84 <= 1
 0 <= x(85)#85 <= 1
 0 <= x(86)#86 <= 1
 0 <= x(87)#87 <= 1
 0 <= x(88)#88 <= 1
 0 <= x(89)#89 <= 1
 0 <= x(90)#90 <= 1
 0 <= x(91)#91 <= 1
 0 <= x(92)#92 <= 1
 0 <= x(93)#93 <= 1
 0 <= x(94)#94 <= 1
 0 <= x(95)#95 <= 1
 0 <= x(96)#96 <= 1
 0 <= x(97)#97 <= 1
 0 <= x(98)#98 <= 1
 0 <= x(99)#99 <= 1
Generals
 x(0)#0  x(1)#1  x(2)#2  x(3)#3  x(4)#4  x(5)#5  x(6)#6  x(7)#7  x(8)#8 
 x(9)#9  x(10)#10  x(11)#11  x(12)#12  x(13)#13  x(14)#14  x(15)#15  x(16)#16 
 x(17)#17  x(18)#18  x(19)#19  x(20)#20  x(21)#21  x(22)#22  x(23)#23 
 x(24)#24  x(25)#25  x(26)#26  x(27)#27  x(28)#28  x(29)#29  x(30)#30 
 x(31)#31  x(32)#32  x(33)#33  x(34)#34  x(35)#35  x(36)#36  x(37)#37 
 x(38)#38  x(39)#39  x(40)#40  x(41)#41  x(42)#42  x(43)#43  x(44)#44 
 x(45)#45  x(46)#46  x(47)#47  x(48)#48  x(49)#49  x(50)#50  x(51)#51 
 x(52)#52  x(53)#53  x(54)#54  x(55)#55  x(56)#56  x(57)#57  x(58)#58 
 x(59)#59  x(60)#60  x(61)#61  x(62)#62  x(63)#63  x(64)#64  x(65)#65 
 x(66)#66  x(67)#67  x(68)#68  x(69)#69  x(70)#70  x(71)#71  x(72)#72 
 x(73)#73  x(74)#74  x(75)#75  x(76)#76  x(77)#77  x(78)#78  x(79)#79 
 x(80)#80  x(81)#81  x(82)#82  x(83)#83  x(84)#84  x(85)#85  x(86)#86 
 x(87)#87  x(88)#88  x(89)#89  x(90)#90  x(91)#91  x(92)#92  x(93)#93 
 x(94)#94  x(95)#95  x(96)#96  x(97)#97  x(98)#98  x(99)#99 
End
